NAME dripping_srl_ilp
* Max problem is converted into Min one
ROWS
 N  OBJ
 L  constraint1_600
 L  constraint1_5382
 L  constraint1_5384
 L  constraint1_5380
 L  constraint1_5383
 L  constraint1_5386
 L  constraint1_5385
 L  constraint1_5381
 L  constraint1_3670
 L  constraint2_600
 L  constraint2_601
 L  constraint2_602
 L  constraint2_603
 L  constraint2_5380
 L  constraint2_5381
 L  constraint2_5382
 L  constraint2_5383
 L  constraint2_3670
 L  constraint2_3671
 L  constraint2_3672
 L  constraint2_3673
COLUMNS
    MARKER    'MARKER'                 'INTORG'
    Z_60_0_0  OBJ       -1.3897121280678215e-03
    Z_60_0_0  constraint1_600  1
    Z_60_0_0  constraint2_600  1
    Z_60_0_1  OBJ       -6.2397951794101241e-03
    Z_60_0_1  constraint1_600  1
    Z_60_0_1  constraint2_601  1
    Z_60_0_2  OBJ       -7.8293787215775867e-01
    Z_60_0_2  constraint1_600  1
    Z_60_0_2  constraint2_602  1
    Z_60_0_3  OBJ       -4.3741083971627022e-02
    Z_60_0_3  constraint1_600  1
    Z_60_0_3  constraint2_603  1
    Z_538_2_0  OBJ       -1.7783384246210844e-03
    Z_538_2_0  constraint1_5382  1
    Z_538_2_0  constraint2_5380  1
    Z_538_2_1  OBJ       -1.6868848712973294e-02
    Z_538_2_1  constraint1_5382  1
    Z_538_2_1  constraint2_5381  1
    Z_538_2_2  OBJ       -7.8000430964519207e-01
    Z_538_2_2  constraint1_5382  1
    Z_538_2_2  constraint2_5382  1
    Z_538_2_3  OBJ       -9.9769387132443224e-03
    Z_538_2_3  constraint1_5382  1
    Z_538_2_3  constraint2_5383  1
    Z_538_4_0  OBJ       -4.6023666648730749e-01
    Z_538_4_0  constraint1_5384  1
    Z_538_4_0  constraint2_5380  1
    Z_538_4_1  OBJ       -4.6321387055593778e-02
    Z_538_4_1  constraint1_5384  1
    Z_538_4_1  constraint2_5381  1
    Z_538_4_2  OBJ       -1.5098490534396393e-02
    Z_538_4_2  constraint1_5384  1
    Z_538_4_2  constraint2_5382  1
    Z_538_4_3  OBJ       -2.1308673168956342e-02
    Z_538_4_3  constraint1_5384  1
    Z_538_4_3  constraint2_5383  1
    Z_538_0_0  OBJ       -5.6414565300088017e-02
    Z_538_0_0  constraint1_5380  1
    Z_538_0_0  constraint2_5380  1
    Z_538_0_1  OBJ       -1.8308430543813037e-02
    Z_538_0_1  constraint1_5380  1
    Z_538_0_1  constraint2_5381  1
    Z_538_0_2  OBJ       -2.6533153602817461e-01
    Z_538_0_2  constraint1_5380  1
    Z_538_0_2  constraint2_5382  1
    Z_538_0_3  OBJ       -2.1158298481884712e-02
    Z_538_0_3  constraint1_5380  1
    Z_538_0_3  constraint2_5383  1
    Z_538_3_0  OBJ       -1.2374122297283301e-01
    Z_538_3_0  constraint1_5383  1
    Z_538_3_0  constraint2_5380  1
    Z_538_3_1  OBJ       -5.7786999985262065e-02
    Z_538_3_1  constraint1_5383  1
    Z_538_3_1  constraint2_5381  1
    Z_538_3_2  OBJ       -4.2049534171720748e-02
    Z_538_3_2  constraint1_5383  1
    Z_538_3_2  constraint2_5382  1
    Z_538_3_3  OBJ       -1.0715441464859067e-01
    Z_538_3_3  constraint1_5383  1
    Z_538_3_3  constraint2_5383  1
    Z_538_6_0  OBJ       -4.3544922977630220e-02
    Z_538_6_0  constraint1_5386  1
    Z_538_6_0  constraint2_5380  1
    Z_538_6_1  OBJ       -2.1610427975579261e-02
    Z_538_6_1  constraint1_5386  1
    Z_538_6_1  constraint2_5381  1
    Z_538_6_2  OBJ       -4.4760541715060748e-01
    Z_538_6_2  constraint1_5386  1
    Z_538_6_2  constraint2_5382  1
    Z_538_6_3  OBJ       -4.0099358950955934e-02
    Z_538_6_3  constraint1_5386  1
    Z_538_6_3  constraint2_5383  1
    Z_538_5_0  OBJ       -6.5093347285572783e-02
    Z_538_5_0  constraint1_5385  1
    Z_538_5_0  constraint2_5380  1
    Z_538_5_1  OBJ       -2.9382965064893740e-02
    Z_538_5_1  constraint1_5385  1
    Z_538_5_1  constraint2_5381  1
    Z_538_5_2  OBJ       -1.9611628748227392e-01
    Z_538_5_2  constraint1_5385  1
    Z_538_5_2  constraint2_5382  1
    Z_538_5_3  OBJ       -3.5315496024008824e-02
    Z_538_5_3  constraint1_5385  1
    Z_538_5_3  constraint2_5383  1
    Z_538_1_0  OBJ       -4.3544922977630220e-02
    Z_538_1_0  constraint1_5381  1
    Z_538_1_0  constraint2_5380  1
    Z_538_1_1  OBJ       -2.1610427975579261e-02
    Z_538_1_1  constraint1_5381  1
    Z_538_1_1  constraint2_5381  1
    Z_538_1_2  OBJ       -4.4760541715060748e-01
    Z_538_1_2  constraint1_5381  1
    Z_538_1_2  constraint2_5382  1
    Z_538_1_3  OBJ       -4.0099358950955934e-02
    Z_538_1_3  constraint1_5381  1
    Z_538_1_3  constraint2_5383  1
    Z_367_0_0  OBJ       -1.8739640881833663e-03
    Z_367_0_0  constraint1_3670  1
    Z_367_0_0  constraint2_3670  1
    Z_367_0_1  OBJ       -7.9932856679507010e-03
    Z_367_0_1  constraint1_3670  1
    Z_367_0_1  constraint2_3671  1
    Z_367_0_2  OBJ       -8.0216968666879862e-01
    Z_367_0_2  constraint1_3670  1
    Z_367_0_2  constraint2_3672  1
    Z_367_0_3  OBJ       -3.1446840852134132e-03
    Z_367_0_3  constraint1_3670  1
    Z_367_0_3  constraint2_3673  1
    MARKER    'MARKER'                 'INTEND'
RHS
    RHS1      constraint1_600  1
    RHS1      constraint1_5382  1
    RHS1      constraint1_5384  1
    RHS1      constraint1_5380  1
    RHS1      constraint1_5383  1
    RHS1      constraint1_5386  1
    RHS1      constraint1_5385  1
    RHS1      constraint1_5381  1
    RHS1      constraint1_3670  1
    RHS1      constraint2_600  1
    RHS1      constraint2_601  1
    RHS1      constraint2_602  1
    RHS1      constraint2_603  1
    RHS1      constraint2_5380  1
    RHS1      constraint2_5381  1
    RHS1      constraint2_5382  1
    RHS1      constraint2_5383  1
    RHS1      constraint2_3670  1
    RHS1      constraint2_3671  1
    RHS1      constraint2_3672  1
    RHS1      constraint2_3673  1
BOUNDS
 UP BND1      Z_60_0_0  1
 UP BND1      Z_60_0_1  1
 UP BND1      Z_60_0_2  1
 UP BND1      Z_60_0_3  1
 UP BND1      Z_538_2_0  1
 UP BND1      Z_538_2_1  1
 UP BND1      Z_538_2_2  1
 UP BND1      Z_538_2_3  1
 UP BND1      Z_538_4_0  1
 UP BND1      Z_538_4_1  1
 UP BND1      Z_538_4_2  1
 UP BND1      Z_538_4_3  1
 UP BND1      Z_538_0_0  1
 UP BND1      Z_538_0_1  1
 UP BND1      Z_538_0_2  1
 UP BND1      Z_538_0_3  1
 UP BND1      Z_538_3_0  1
 UP BND1      Z_538_3_1  1
 UP BND1      Z_538_3_2  1
 UP BND1      Z_538_3_3  1
 UP BND1      Z_538_6_0  1
 UP BND1      Z_538_6_1  1
 UP BND1      Z_538_6_2  1
 UP BND1      Z_538_6_3  1
 UP BND1      Z_538_5_0  1
 UP BND1      Z_538_5_1  1
 UP BND1      Z_538_5_2  1
 UP BND1      Z_538_5_3  1
 UP BND1      Z_538_1_0  1
 UP BND1      Z_538_1_1  1
 UP BND1      Z_538_1_2  1
 UP BND1      Z_538_1_3  1
 UP BND1      Z_367_0_0  1
 UP BND1      Z_367_0_1  1
 UP BND1      Z_367_0_2  1
 UP BND1      Z_367_0_3  1
ENDATA
